NAME          
ROWS
 N  OBJ
 L  c1
 L  c2
 L  c3
COLUMNS
    MARKER    'MARKER'                 'INTORG'
    x[1]      c1        870
    x[1]      c2        762
    x[1]      c3        413
    x[1]      OBJ       -212
    x[2]      c1        940
    x[2]      c2        45
    x[2]      c3        626
    x[2]      OBJ       -251
    x[3]      c1        719
    x[3]      c2        933
    x[3]      c3        195
    x[3]      OBJ       -416
    x[4]      c1        663
    x[4]      c2        507
    x[4]      c3        905
    x[4]      OBJ       -736
    x[5]      c1        119
    x[5]      c2        186
    x[5]      c3        547
    x[5]      OBJ       -778
    x[6]      c1        969
    x[6]      c2        463
    x[6]      c3        701
    x[6]      OBJ       -728
    x[7]      c1        597
    x[7]      c2        31
    x[7]      c3        77
    x[7]      OBJ       -82
    x[8]      c1        254
    x[8]      c2        521
    x[8]      c3        764
    x[8]      OBJ       -705
    x[9]      c1        849
    x[9]      c2        661
    x[9]      c3        537
    x[9]      OBJ       -170
    x[10]     c1        598
    x[10]     c2        296
    x[10]     c3        659
    x[10]     OBJ       -12
    x[11]     c1        831
    x[11]     c2        31
    x[11]     c3        151
    x[11]     OBJ       -554
    x[12]     c1        36
    x[12]     c2        9
    x[12]     c3        933
    x[12]     OBJ       -763
    x[13]     c1        674
    x[13]     c2        626
    x[13]     c3        884
    x[13]     OBJ       -277
    x[14]     c1        737
    x[14]     c2        365
    x[14]     c3        397
    x[14]     OBJ       -321
    x[15]     c1        831
    x[15]     c2        287
    x[15]     c3        912
    x[15]     OBJ       -192
    x[16]     c1        750
    x[16]     c2        597
    x[16]     c3        342
    x[16]     OBJ       -744
    x[17]     c1        435
    x[17]     c2        679
    x[17]     c3        928
    x[17]     OBJ       -159
    x[18]     c1        265
    x[18]     c2        123
    x[18]     c3        501
    x[18]     OBJ       -218
    x[19]     c1        262
    x[19]     c2        714
    x[19]     c3        123
    x[19]     OBJ       -231
    x[20]     c1        715
    x[20]     c2        4
    x[20]     c3        957
    x[20]     OBJ       -787
    x[21]     c1        171
    x[21]     c2        891
    x[21]     c3        431
    x[21]     OBJ       -875
    x[22]     c1        321
    x[22]     c2        927
    x[22]     c3        590
    x[22]     OBJ       -71
    x[23]     c1        103
    x[23]     c2        598
    x[23]     c3        781
    x[23]     OBJ       -85
    x[24]     c1        407
    x[24]     c2        556
    x[24]     c3        914
    x[24]     OBJ       -217
    x[25]     c1        229
    x[25]     c2        301
    x[25]     c3        338
    x[25]     OBJ       -772
RHS
    rhs       c1        6672
    rhs       c2        5556
    rhs       c3        7303
RANGES
BOUNDS
 BV bounds    x[1]
 BV bounds    x[2]
 BV bounds    x[3]
 BV bounds    x[4]
 BV bounds    x[5]
 BV bounds    x[6]
 BV bounds    x[7]
 BV bounds    x[8]
 BV bounds    x[9]
 BV bounds    x[10]
 BV bounds    x[11]
 BV bounds    x[12]
 BV bounds    x[13]
 BV bounds    x[14]
 BV bounds    x[15]
 BV bounds    x[16]
 BV bounds    x[17]
 BV bounds    x[18]
 BV bounds    x[19]
 BV bounds    x[20]
 BV bounds    x[21]
 BV bounds    x[22]
 BV bounds    x[23]
 BV bounds    x[24]
 BV bounds    x[25]
ENDATA
